; benchmark generated from python API
(set-info :status unknown)
(declare-fun S_0 () Real)
(declare-fun L_0 () Real)
(declare-fun A_0 () Real)
(declare-fun S_3 () Real)
(declare-fun S_5 () Real)
(declare-fun L_4 () Real)
(declare-fun A_4 () Real)
(declare-fun S_1 () Real)
(declare-fun S_4 () Real)
(declare-fun S_2 () Real)
(declare-fun L_2 () Real)
(declare-fun A_2 () Real)
(declare-fun L_3 () Real)
(declare-fun L_1 () Real)
(declare-fun A_1 () Real)
(declare-fun A_5 () Real)
(declare-fun A_3 () Real)
(assert
 (let (($x39 (>= L_0 0.0)))
 (let (($x21110 (<= (+ S_5 (* (- 1.0) A_4) L_4 (* (- (/ 1.0 2.0)) S_3) (* (/ 1.0 2.0) S_0)) 0.0)))
 (let (($x9823 (<= (+ S_5 (* (- (/ 1.0 3.0)) S_4) (* (- 1.0) A_4) L_4 (* (/ 1.0 3.0) S_0)) 0.0)))
 (let (($x17406 (<= (+ S_5 (* (- (/ 1.0 2.0)) S_4) (* (- 1.0) A_4) L_4 (* (/ 1.0 2.0) S_1)) 0.0)))
 (let ((?x293 (* (- 1.0) L_2)))
 (let ((?x401 (* (- 1.0) S_1)))
 (let ((?x442 (* (- 1.0) A_4)))
 (let (($x86 (= L_4 L_3)))
 (let ((?x1900 (* (- 3.0) L_4)))
 (let ((?x1213 (* 3.0 L_2)))
 (let ((?x4422 (* 2.0 S_0)))
 (let ((?x1261 (* (- 3.0) A_2)))
 (let ((?x1957 (* 3.0 A_4)))
 (let ((?x1848 (* (- 2.0) S_4)))
 (let (($x66 (= L_2 L_1)))
 (let ((?x1928 (* 2.0 L_4)))
 (let ((?x1211 (* (- 2.0) L_2)))
 (let ((?x1945 (* (- 2.0) S_0)))
 (let ((?x1388 (* 2.0 S_1)))
 (let ((?x1079 (* 2.0 A_2)))
 (let ((?x1777 (* (- 2.0) A_4)))
 (let ((?x2272 (* (/ 5.0 2.0) L_4)))
 (let ((?x2255 (* (- (/ 5.0 2.0)) L_2)))
 (let ((?x2169 (* (/ 5.0 2.0) A_2)))
 (let ((?x2263 (* (- (/ 5.0 2.0)) A_4)))
 (let (($x8764 (<= (+ (* (- 1.0) L_1) ?x442 A_2 S_1 (* (- 1.0) S_0) L_4) 0.0)))
 (let (($x1628 (not $x66)))
 (let ((?x2948 (* (/ 2.0 3.0) S_0)))
 (let ((?x436 (* (- 1.0) A_2)))
 (let ((?x310 (* (- 1.0) L_3)))
 (let (($x613 (not (<= 0.0 (+ L_3 (* (- 1.0) L_4))))))
 (let (($x63230 (or $x66 $x613 (<= (+ ?x310 (* (- (/ 2.0 3.0)) S_4) A_4 ?x436 ?x2948 L_2) 0.0))))
 (let (($x24063 (<= (+ A_4 ?x436 (* (- 2.0) S_2) ?x4422 L_2 (* (- 1.0) L_4)) 0.0)))
 (let ((?x1946 (* 4.0 L_4)))
 (let ((?x1345 (* (- 4.0) L_2)))
 (let ((?x1845 (* (- 2.0) S_2)))
 (let ((?x1344 (* 4.0 A_2)))
 (let ((?x1944 (* (- 4.0) A_4)))
 (let ((?x1849 (* 2.0 S_5)))
 (let ((?x4084 (* (- 3.0) S_0)))
 (let ((?x4382 (* 3.0 S_1)))
 (let ((?x1229 (* 2.0 A_1)))
 (let ((?x1097 (* (- 2.0) L_1)))
 (let ((?x1935 (* (/ 3.0 2.0) L_4)))
 (let ((?x1934 (* (- (/ 3.0 2.0)) L_2)))
 (let ((?x1933 (* (/ 3.0 2.0) A_2)))
 (let ((?x1852 (* (- (/ 3.0 2.0)) A_4)))
 (let ((?x1364 (* (- 1.0) A_0)))
 (let ((?x276 (* (- 1.0) L_1)))
 (let ((?x5623 (* 3.0 L_0)))
 (let ((?x5644 (* (- 3.0) A_0)))
 (let ((?x1844 (* (/ 1.0 2.0) L_4)))
 (let ((?x1825 (* (- (/ 1.0 2.0)) L_2)))
 (let ((?x1767 (* (/ 1.0 2.0) A_2)))
 (let ((?x1675 (* (- (/ 1.0 2.0)) A_4)))
 (let ((?x2267 (* 6.0 L_4)))
 (let ((?x2281 (* (- 6.0) A_4)))
 (let ((?x1718 (* 6.0 A_1)))
 (let ((?x1683 (* (- 6.0) L_1)))
 (let ((?x5031 (* 3.0 S_5)))
 (let (($x4862 (<= (+ (* (- 1.0) S_5) A_4 (* (- 1.0) L_4)) 0.0)))
 (let (($x62547 (or $x4862 (<= (+ (* (- (/ 2.0 3.0)) S_5) (* (/ 5.0 3.0) S_1) (* (- 1.0) S_0)) 0.0))))
 (let ((?x1507 (* (- (/ 1.0 2.0)) L_4)))
 (let ((?x1570 (* (/ 1.0 2.0) L_2)))
 (let ((?x414 (* (- 1.0) S_3)))
 (let ((?x1924 (* (- (/ 1.0 2.0)) A_2)))
 (let ((?x1539 (* (/ 1.0 2.0) A_4)))
 (let ((?x3991 (* 5.0 L_4)))
 (let ((?x4181 (* (- 5.0) A_4)))
 (let ((?x1725 (* 5.0 A_1)))
 (let ((?x1704 (* (- 5.0) L_1)))
 (let ((?x1494 (* 4.0 L_2)))
 (let ((?x407 (* (- 1.0) S_2)))
 (let ((?x1493 (* (- 4.0) A_2)))
 (let ((?x1717 (* 4.0 A_1)))
 (let ((?x1728 (* (- 4.0) L_1)))
 (let ((?x428 (* (- 1.0) S_5)))
 (let ((?x2887 (+ ?x428 (* (/ 4.0 3.0) L_1) (* (- (/ 4.0 3.0)) A_1) (* (/ 4.0 3.0) A_4) S_0 (* (- (/ 4.0 3.0)) L_4))))
 (let (($x56 (= L_1 L_0)))
 (let ((?x4552 (* 3.0 L_4)))
 (let ((?x4969 (* (- 3.0) S_1)))
 (let ((?x4607 (* 3.0 S_3)))
 (let ((?x2047 (* (- 3.0) A_4)))
 (let ((?x1254 (* 3.0 A_1)))
 (let ((?x1265 (* (- 3.0) L_1)))
 (let (($x36176 (or $x66 (<= (+ A_4 ?x436 ?x414 S_0 L_2 (* (- 1.0) L_4)) 0.0))))
 (let ((?x1351 (* (- 3.0) L_2)))
 (let ((?x3638 (* 2.0 S_2)))
 (let ((?x1350 (* 3.0 A_2)))
 (let (($x2269 (<= (+ ?x1849 ?x2281 (* 6.0 A_2) ?x1945 (* (- 6.0) L_2) ?x2267) 0.0)))
 (let (($x62486 (or $x86 $x1628 (<= (+ S_5 ?x1265 ?x2047 ?x1350 (* (- 1.0) S_0) ?x4552) 0.0))))
 (let ((?x1847 (* (- 2.0) L_4)))
 (let ((?x1239 (* 2.0 L_2)))
 (let ((?x1172 (* (- 2.0) A_2)))
 (let ((?x1791 (* 2.0 A_4)))
 (let (($x37454 (or $x66 (<= (+ ?x1848 A_4 ?x436 ?x3638 L_2 (* (- 1.0) L_4)) 0.0))))
 (let (($x61292 (or $x66 (<= (+ S_5 (* (- 1.0) S_4) ?x1097 ?x1229 ?x1172 ?x1239) 0.0))))
 (let ((?x4087 (* (/ 4.0 3.0) L_4)))
 (let ((?x4089 (* (- (/ 4.0 3.0)) A_4)))
 (let ((?x5268 (* (/ 4.0 3.0) A_1)))
 (let ((?x4770 (* (- (/ 4.0 3.0)) L_1)))
 (let ((?x327 (* (- 1.0) L_4)))
 (let ((?x3635 (* 3.0 S_2)))
 (let ((?x434 (* (- 1.0) A_1)))
 (let ((?x3642 (* (- 3.0) S_4)))
 (let ((?x4746 (* 3.0 S_0)))
 (let ((?x1343 (* (- 3.0) A_1)))
 (let ((?x1342 (* 3.0 L_1)))
 (let (($x2684 (<= (+ (* 2.0 L_1) (* (- 2.0) A_1) ?x1079 ?x414 S_0 ?x1211) 0.0)))
 (let (($x41971 (or $x56 (<= (+ (* (- 1.0) S_4) ?x1342 ?x1343 ?x1350 S_0 ?x1351) 0.0))))
 (let (($x12107 (<= (+ ?x276 ?x442 A_2 (* (/ 2.0 3.0) S_2) (* (- (/ 2.0 3.0)) S_0) L_4) 0.0)))
 (let ((?x1720 (* 6.0 L_2)))
 (let ((?x1333 (* (- 1.0) S_0)))
 (let ((?x1692 (* (- 6.0) A_2)))
 (let (($x61462 (or $x56 $x86 $x1628 (<= (+ ?x276 (* (- 2.0) A_1) ?x442 ?x1350 L_4) 0.0))))
 (let (($x10888 (<= (+ ?x3642 (* 2.0 L_1) (* (- 2.0) A_1) ?x1791 ?x4382 ?x1847) 0.0)))
 (let (($x6202 (<= (+ (* (- 1.0) S_4) (* (- 2.0) A_0) (* 2.0 L_0) ?x4382) 0.0)))
 (let (($x1625 (not $x56)))
 (let (($x63494 (or $x86 $x1625 (<= (+ S_5 (* (- 1.0) L_0) A_1 ?x442 ?x414 L_4) 0.0))))
 (let (($x9103 (<= (+ ?x428 (* (- (/ 1.0 3.0)) A_0) (* (/ 1.0 3.0) L_0) (* (/ 4.0 3.0) S_3)) 0.0)))
 (let (($x768 (not $x86)))
 (let (($x498 (<= 0.0 (+ L_3 (* 2.0 L_1) (* (- 2.0) A_1) ?x442 ?x1350 ?x1351))))
 (let ((?x5032 (+ ?x428 (* (/ 2.0 3.0) L_1) (* (- (/ 2.0 3.0)) A_1) (* (/ 2.0 3.0) A_4) S_2 (* (- (/ 2.0 3.0)) L_4))))
 (let (($x1746 (<= (+ S_5 ?x1364 L_0 ?x1704 ?x1725 (* (- 5.0) A_2) (* 5.0 L_2)) 0.0)))
 (let ((?x5025 (* (- (/ 1.0 3.0)) L_4)))
 (let ((?x3522 (* (/ 1.0 3.0) A_4)))
 (let ((?x4715 (* (- (/ 1.0 3.0)) A_1)))
 (let ((?x4193 (* (/ 1.0 3.0) L_1)))
 (let ((?x3937 (* (/ 2.0 3.0) L_4)))
 (let ((?x3350 (* (- (/ 2.0 3.0)) A_4)))
 (let ((?x4263 (* (/ 2.0 3.0) A_1)))
 (let ((?x5030 (* (- (/ 2.0 3.0)) L_1)))
 (let (($x61160 (or $x56 (<= (+ L_1 ?x434 A_4 (* (- 3.0) S_3) ?x4382 ?x327) 0.0))))
 (let (($x10728 (<= (+ (* 3.0 S_4) ?x1097 ?x1229 ?x1777 (* (- 3.0) S_3) ?x1928) 0.0)))
 (let (($x61790 (or $x86 (<= (+ (* 3.0 S_4) ?x5644 ?x5623 ?x1728 ?x1717 ?x1944 ?x1946) 0.0))))
 (let ((?x4374 (* (- 3.0) S_3)))
 (let ((?x1074 (* (- 2.0) A_1)))
 (let ((?x1205 (* 2.0 L_1)))
 (let (($x62544 (or $x56 (<= (+ (* (- 1.0) S_4) ?x1205 ?x1074 ?x1079 S_1 ?x1211) 0.0))))
 (let (($x1694 (<= (+ S_5 ?x1704 ?x1725 (* (- 5.0) A_2) ?x401 (* 5.0 L_2)) 0.0)))
 (let (($x36920 (or $x66 $x1625 (<= (+ (* (- 2.0) L_0) ?x1229 A_4 ?x1261 ?x1213 ?x327) 0.0))))
 (let (($x76 (= L_3 L_2)))
 (let ((?x923 (+ L_0 ?x276)))
 (let (($x588 (<= 0.0 ?x923)))
 (let (($x61867 (or $x588 (<= (+ (* (- 1.0) S_4) L_1 ?x434 A_2 S_2 ?x293) 0.0))))
 (let (($x144 (>= A_3 A_2)))
 (let (($x146 (>= A_5 A_4)))
 (let (($x128 (>= S_1 S_0)))
 (let (($x131 (>= S_2 S_1)))
 (let (($x134 (>= S_3 S_2)))
 (let (($x137 (>= S_4 S_3)))
 (let (($x143 (>= A_2 A_1)))
 (let (($x145 (>= A_4 A_3)))
 (and (<= (+ A_3 ?x310) S_5) (<= (+ A_0 (* (- 1.0) L_0)) S_4) (not (<= (+ A_1 ?x276) S_4)) $x145 $x143 $x137 $x134 $x131 $x128 $x146 (or $x56 (not $x588)) $x144 (or $x66 (<= (+ ?x276 A_1 ?x436 L_2) (- 5.0))) (or $x66 $x86 $x588 (= (+ ?x1205 ?x1074 ?x442 ?x1350 ?x1351 L_4) 0.0)) $x61867 (or $x86 $x613) (or $x86 (<= (+ ?x442 A_2 ?x293 L_4) (- 10.0))) (or $x66 (not (<= 0.0 (+ L_1 ?x293)))) $x76 (<= (+ ?x414 S_0) (- 10.0)) (or $x66 (<= (+ ?x1364 L_0 ?x1265 ?x1254 ?x1261 S_3 ?x1213) 0.0)) (<= (+ (* (- 1.0) S_4) S_2) (- 5.0)) (<= (+ (* (- (/ 1.0 3.0)) S_4) (* (/ 1.0 3.0) S_0)) (- 5.0)) (<= (+ ?x407 S_0) (- 5.0)) (or $x86 (<= (+ ?x276 A_1 ?x442 L_4) (- 15.0))) (or $x56 (<= (+ ?x4193 ?x4715 ?x3522 ?x407 S_0 ?x5025) 0.0)) $x36920 (<= (+ ?x414 S_1) (- 5.0)) (<= (+ ?x1364 L_0 ?x414 ?x1388) 0.0) (or $x66 $x1694) $x62544 (or $x56 (<= (+ ?x1205 ?x1074 ?x1791 ?x4374 ?x4746 ?x1847) 0.0)) (<= (+ ?x1848 ?x3635 ?x401) 0.0) (<= (+ ?x1848 ?x1364 L_0 ?x3635) 0.0) (or $x86 (<= (+ ?x1265 ?x1254 ?x2047 ?x3635 ?x4084 ?x4552) 0.0)) (or $x86 (<= (+ ?x1097 ?x1229 ?x1777 ?x3635 ?x4969 ?x1928) 0.0)) (or $x86 (<= (+ ?x5644 ?x5623 ?x1097 ?x1229 ?x1777 ?x3635 ?x1928) 0.0)) (or $x86 (<= (+ S_4 ?x276 A_1 ?x442 ?x407 L_4) 0.0)) $x61790 (or $x56 (<= (+ ?x428 L_1 ?x434 A_4 S_1 ?x327) 0.0)) (or $x86 $x10728) $x61160 (or $x86 (<= (+ ?x5030 ?x4263 ?x3350 S_3 ?x407 ?x3937) 0.0)) (or $x4862 (<= (+ ?x428 (* (/ 3.0 2.0) S_3) (* (- (/ 1.0 2.0)) S_2)) 0.0)) (or $x56 (<= (+ ?x428 ?x4193 ?x4715 ?x3522 S_3 ?x5025) 0.0)) (<= (+ ?x414 (* (/ 3.0 2.0) S_1) (* (- (/ 1.0 2.0)) S_0)) 0.0) (or $x86 (<= (+ ?x5644 ?x5623 ?x1265 ?x1254 ?x2047 ?x4607 ?x4552) 0.0)) (or $x86 (<= (+ ?x1728 ?x1717 ?x1944 ?x4607 ?x4084 ?x1946) 0.0)) (or $x86 (<= (+ (* 3.0 S_4) ?x1704 ?x1725 ?x4181 ?x4084 ?x3991) 0.0)) (or $x4862 (<= (+ (* (- (/ 1.0 4.0)) S_5) (* (/ 1.0 4.0) S_0)) (- 5.0))) (or $x66 (<= (+ ?x1364 L_0 ?x1097 ?x1229 ?x1172 S_2 ?x1239) 0.0)) (or $x66 (<= (+ ?x1265 ?x1254 ?x1261 S_2 ?x1333 ?x1213) 0.0)) (or $x4862 (<= (+ (* (- (/ 1.0 2.0)) S_5) (* (/ 1.0 2.0) S_2)) (- 5.0))) (or $x66 $x1746) (or $x66 (<= (+ ?x1265 ?x1254 ?x1261 S_3 ?x401 ?x1213) 0.0)) (or $x66 (<= (+ ?x1364 L_0 ?x276 A_1 ?x436 S_1 L_2) 0.0)) (or $x56 (<= ?x5032 0.0)) (or $x86 (<= (+ ?x5031 ?x3642 ?x1097 ?x1229 ?x1777 ?x1928) 0.0)) (or $x86 (<= (+ ?x1852 ?x1933 S_3 ?x401 ?x1934 ?x1935) 0.0)) (<= (+ (* (/ 1.0 2.0) S_3) (* (- (/ 3.0 2.0)) S_2) S_0) 0.0) (or $x56 (<= (+ L_1 ?x434 A_2 ?x407 S_0 ?x293) 0.0)) (or $x66 $x498 $x768) (or $x4862 (<= (+ ?x428 S_3) (- 5.0))) (or $x4862 $x9103) (or $x4862 (<= (+ ?x428 ?x1364 L_0 ?x3638) 0.0)) (or $x4862 (<= (+ ?x428 ?x5644 ?x5623 (* 4.0 S_1)) 0.0)) (or $x4862 (<= (+ ?x428 S_1) (- 15.0))) (or $x4862 (<= (+ (* (- 3.0) S_5) (* 4.0 S_3) ?x401) 0.0)) (or $x4862 (<= (+ ?x428 ?x3638 ?x401) 0.0)) (or $x4862 (<= (+ ?x428 (* (/ 5.0 3.0) S_2) (* (- (/ 2.0 3.0)) S_0)) 0.0)) (or $x4862 (<= (+ ?x428 (* (/ 5.0 4.0) S_3) (* (- (/ 1.0 4.0)) S_0)) 0.0)) $x63494 (or $x66 (<= (+ ?x1097 ?x1229 ?x1172 S_1 ?x1333 ?x1239) 0.0)) (or $x56 (<= (+ L_1 ?x434 A_2 ?x414 S_1 ?x293) 0.0)) (<= (+ (* (/ 1.0 4.0) S_5) ?x414 (* (/ 3.0 4.0) S_1)) 0.0) (or $x66 (<= (+ ?x1097 ?x1229 ?x1172 S_2 ?x401 ?x1239) 0.0)) (or $x66 (<= (+ ?x1097 ?x1229 ?x1172 S_3 ?x407 ?x1239) 0.0)) $x6202 (<= (+ (* (- 1.0) S_4) S_1) (- 10.0)) (or $x56 $x10888) (<= (+ S_5 (* (- 1.0) A_5) L_4) 0.0) (or $x86 (<= (+ S_5 ?x1364 L_0 ?x2263 ?x2169 ?x2255 ?x2272) 0.0)) (or $x66 (<= (+ ?x1728 ?x1717 ?x1493 S_3 ?x1333 ?x1494) 0.0)) $x61462 (or $x66 (<= (+ S_5 ?x1683 ?x1718 ?x1692 ?x1333 ?x1720) 0.0)) (or $x66 (<= (+ S_5 ?x1265 ?x1254 ?x1261 ?x414 ?x1213) 0.0)) (or $x86 (<= (+ ?x5031 ?x1265 ?x1254 ?x2047 ?x4374 ?x4552) 0.0)) (or $x86 (<= (+ S_5 ?x1852 ?x1933 ?x414 ?x1934 ?x1935) 0.0)) (or $x86 (<= (+ ?x1364 L_0 ?x442 A_2 S_2 ?x293 L_4) 0.0)) (or $x86 $x1628 $x12107) $x41971 (or $x56 $x2684) (or $x56 (<= (+ ?x3642 ?x1342 ?x1343 ?x1957 ?x4746 ?x1900) 0.0)) (or $x86 (<= (+ (* 3.0 S_4) ?x1728 ?x1717 ?x1944 ?x4969 ?x1946) 0.0)) (or $x56 (<= (+ ?x3642 L_1 ?x434 A_4 ?x3635 ?x327) 0.0)) (or $x86 (<= (+ S_5 ?x4770 ?x5268 ?x4089 ?x407 ?x4087) 0.0)) (or $x86 $x1628 (<= (+ S_5 ?x1097 ?x1777 ?x1079 ?x407 ?x1928) 0.0)) (or $x86 (<= (+ ?x1849 ?x1848 ?x1777 ?x1079 ?x1211 ?x1928) 0.0)) $x61292 $x37454 (or $x66 (<= (+ ?x1848 ?x1791 ?x1172 ?x1388 ?x1239 ?x1847) 0.0)) $x62486 (or $x86 $x2269) (or $x86 (<= (+ ?x2047 ?x1350 ?x3638 ?x1945 ?x1351 ?x4552) 0.0)) $x36176 (or $x86 (<= (+ ?x1265 ?x1254 ?x2047 ?x4607 ?x4969 ?x4552) 0.0)) (or $x56 (<= ?x2887 0.0)) (or $x66 (<= (+ S_5 ?x1728 ?x1717 ?x1493 ?x407 ?x1494) 0.0)) (or $x86 (<= (+ ?x5031 ?x1704 ?x1725 ?x4181 ?x4969 ?x3991) 0.0)) (or $x86 (<= (+ ?x5031 ?x5644 ?x5623 ?x1704 ?x1725 ?x4181 ?x3991) 0.0)) (<= (+ (* (- 1.0) S_4) ?x1388 ?x1333) 0.0) (or $x66 (<= (+ ?x1539 ?x1924 ?x414 S_1 ?x1570 ?x1507) 0.0)) $x62547 (or $x86 (<= (+ ?x5031 ?x1683 ?x1718 ?x2281 ?x4084 ?x2267) 0.0)) (or $x86 (<= (+ ?x1364 L_0 ?x1675 ?x1767 S_1 ?x1825 ?x1844) 0.0)) (or $x86 (<= (+ ?x5644 ?x5623 ?x276 A_1 ?x442 ?x4382 L_4) 0.0)) (<= (+ (* (/ 1.0 4.0) S_4) ?x407 (* (/ 3.0 4.0) S_0)) 0.0) (or $x86 (<= (+ ?x1944 ?x1344 (* 2.0 S_3) ?x1945 ?x1345 ?x1946) 0.0)) (<= (+ ?x3642 (* 4.0 S_2) ?x1333) 0.0) (or $x86 (<= (+ ?x1364 L_0 ?x1852 ?x1933 S_3 ?x1934 ?x1935) 0.0)) (or $x86 (<= (+ ?x1097 ?x1229 ?x1777 ?x4382 ?x4084 ?x1928) 0.0)) (or $x86 (<= (+ ?x1777 ?x1079 (* 2.0 S_3) ?x1845 ?x1211 ?x1928) 0.0)) (or $x86 (<= (+ ?x1849 ?x1944 ?x1344 ?x1845 ?x1345 ?x1946) 0.0)) (or $x66 $x24063) $x63230 (or $x86 $x1628 $x8764) (or $x86 (<= (+ S_5 ?x2263 ?x2169 ?x401 ?x2255 ?x2272) 0.0)) (<= (+ S_4 (* (- 2.0) S_3) S_0) 0.0) (<= (+ S_5 ?x3642 ?x3638) 0.0) (or $x86 (<= (+ ?x1777 ?x1079 ?x1388 ?x1945 ?x1211 ?x1928) 0.0)) (or $x66 (<= (+ ?x1848 ?x1957 ?x1261 ?x4422 ?x1213 ?x1900) 0.0)) (or $x86 (<= (+ ?x442 A_2 S_2 ?x401 ?x293 L_4) 0.0)) (<= (+ (* (/ 1.0 2.0) S_5) (* (- 1.0) S_4) (* (/ 1.0 2.0) S_1)) 0.0) $x17406 (<= (+ S_5 (* (- (/ 5.0 3.0)) S_4) ?x2948) 0.0) (<= (+ (* (/ 1.0 5.0) S_5) ?x407 (* (/ 4.0 5.0) S_0)) 0.0) $x9823 (<= (+ S_5 (* (- 1.0) S_4) ?x442 L_4 S_2) 0.0) (<= (+ S_5 ?x442 L_4 ?x414 S_1) 0.0) (<= (+ S_5 ?x442 L_4 ?x407 S_0) 0.0) (<= (+ (* (/ 1.0 3.0) S_4) ?x414 (* (/ 2.0 3.0) S_1)) 0.0) $x21110 (<= (+ S_5 (* (- (/ 5.0 2.0)) S_3) (* (/ 3.0 2.0) S_0)) 0.0) $x39 (<= (+ ?x1364 L_0 S_0) 0.0))))))))))))))))))))))))))))))))))))))))))))))))))))))))))))))))))))))))))))))))))))))))))))))))))))))))))))))))))))))))))))))))))))))))))))))))))))))))))))
(check-sat)
